100 7000
2 48
2 16
1 17
2 41
2 39
2 40
1 7
1 4
2 16
1 24
1 32
2 19
1 46
2 11
1 29
1 26
1 5
1 38
2 21
1 4
1 6
2 44
2 37
2 12
2 3
2 12
2 15
2 32
2 13
1 3
1 38
1 46
2 10
2 42
1 23
2 20
2 11
1 27
1 39
2 49
2 25
2 31
2 9
1 33
2 1
1 18
1 10
2 24
2 34
2 23
2 43
1 40
1 47
1 48
1 15
2 42
1 35
1 20
1 5
1 25
1 27
2 28
2 33
2 36
2 8
2 9
2 8
2 36
2 2
2 50
2 37
1 21
2 13
2 14
2 26
1 45
1 19
1 35
2 49
1 30
2 14
2 30
1 22
2 7
1 1
1 6
1 41
2 17
1 50
1 44
1 2
1 31
1 45
2 34
2 43
2 18
2 28
1 22
2 47
1 29
